************************************************************************
file with basedata            : mm47_.bas
initial value random generator: 815663530
************************************************************************
projects                      :  1
jobs (incl. supersource/sink ):  12
horizon                       :  86
RESOURCES
  - renewable                 :  2   R
  - nonrenewable              :  2   N
  - doubly constrained        :  0   D
************************************************************************
PROJECT INFORMATION:
pronr.  #jobs rel.date duedate tardcost  MPM-Time
    1     10      0       21        3       21
************************************************************************
PRECEDENCE RELATIONS:
jobnr.    #modes  #successors   successors
   1        1          3           2   3   4
   2        3          2           5   8
   3        3          2           7  11
   4        3          2           6  11
   5        3          2           9  11
   6        3          1           7
   7        3          2           8  10
   8        3          1           9
   9        3          1          12
  10        3          1          12
  11        3          1          12
  12        1          0        
************************************************************************
REQUESTS/DURATIONS:
jobnr. mode duration  R 1  R 2  N 1  N 2
------------------------------------------------------------------------
  1      1     0       0    0    0    0
  2      1     4       8    4    7    5
         2     4       9    5    6    6
         3    10       6    3    5    4
  3      1     6       8    7    9    5
         2     6       7    7    9    6
         3     8       6    7    8    3
  4      1     6       8    5    8   10
         2     8       7    3    5    9
         3     8       7    4    7    8
  5      1     5       4    8    4    2
         2     7       4    7    3    2
         3     9       2    7    2    1
  6      1     8       9    7    7    2
         2     8       9    6    7    3
         3     9       8    4    6    1
  7      1     2       8    4    4    6
         2     5       6    3    3    5
         3     9       6    3    2    3
  8      1     3      10   10    7    9
         2     7       7    9    6    8
         3     9       7    8    6    8
  9      1     2       6    6    4    8
         2     5       5    6    2    8
         3     6       3    4    2    7
 10      1     5       9    7    6    8
         2     9       9    4    6    7
         3     9       9    6    5    7
 11      1     6       4    8    4    7
         2     8       3    7    4    6
         3     9       3    6    4    5
 12      1     0       0    0    0    0
************************************************************************
RESOURCEAVAILABILITIES:
  R 1  R 2  N 1  N 2
   17   14   56   60
************************************************************************
MAXIMAL LAGS:
from  to  type  delay
    1   12   ES      0
    1    2   ES      0
    2   12   ES      0
    1    3   ES      0
    3   12   ES      0
    1    4   ES      0
    4   12   ES      0
    1    5   ES      0
    5   12   ES      0
    1    6   ES      0
    6   12   ES      0
    1    7   ES      0
    7   12   ES      0
    1    8   ES      0
    8   12   ES      0
    1    9   ES      0
    9   12   ES      0
    1   10   ES      0
   10   12   ES      0
    1   11   ES      0
   11   12   ES      0
    1   12   ES      0
    2    5   SS      5
    2    5   SE      7
    2    5   ES     -6
    2    5   EE     10
    2    8   SS     -7
    2    8   SE    -11
    2    8   ES      1
    2    8   EE     10
    3    7   SS     -4
    3    7   SE      7
    7    3   SE      0
    3    7   ES      0
    3    7   EE      8
    3   11   SS      6
    3   11   SE     -5
    3   11   ES      8
    3   11   EE     -1
    4    6   SS      3
    4    6   SE      4
    4    6   ES      9
    4    6   EE     -7
    4   11   SS     -3
    4   11   SE     -5
    4   11   ES     -3
    4   11   EE      9
    5    9   SS      3
    5    9   SE      3
    5    9   ES      8
    5    9   EE      0
    5   11   SS      7
    5   11   SE     -1
    5   11   ES      5
    5   11   EE      3
    6    7   SS     -3
    6    7   SE     -9
    6    7   ES     -5
    6    7   EE     -9
    7    8   SS     12
    7    8   SE     12
    7    8   ES     -3
    7    8   EE      1
    7   10   SS      2
    7   10   SE     -2
    7   10   ES     -5
    7   10   EE      9
    8    9   SS      1
    8    9   SE     -9
    8    9   ES     -7
    8    9   EE      2
************************************************************************
